StudentsNr = 10;
InstructorsNr = 58;
DaysNr = 2;
SlotsPerDay = 15;
AvailabilitySlotsLenght = 15;
RoomNr = 2;
ProgrammNr = 1;
DegreeNr = 1;
RolesNr = 1;
CoursesNr = 6;
InstructorsProgramm = [{1}, {1}, {1}, {1}, {1}, {1}, {1}, {1}, {1}, {1}, {1}, {1}, {1}, {1}, {1}, {1}, {1}, {1}, {1}, {1}, {1}, {1}, {1}, {1}, {1}, {1}, {1}, {1}, {1}, {1}, {1}, {1}, {1}, {1}, {1}, {1}, {1}, {1}, {1}, {1}, {1}, {1}, {1}, {1}, {1}, {1}, {1}, {1}, {1}, {1}, {1}, {1}, {1}, {1}, {1}, {1}, {1}, {1}];
InstructorRolesPerProgramm = [|{5, 6, 9, 11, 12, 18, 21, 22, 23, 25, 26, 28, 33, 36, 37, 38, 41, 49, 50, 52, 53, 55, 56}|];
InstructorsAvailability = [|0, 1, |1, 1, |1, 1, |1, 0, |1, 1, |1, 0, |0, 0, |0, 1, |0, 1, |1, 1, |0, 1, |1, 1, |0, 0, |0, 0, |0, 0, |0, 1, |0, 0, |1, 0, |1, 1, |0, 0, |1, 1, |1, 1, |1, 1, |1, 0, |0, 0, |0, 1, |1, 1, |0, 1, |1, 1, |0, 0, |0, 1, |0, 1, |0, 0, |1, 1, |1, 1, |1, 1, |1, 0, |1, 1, |1, 1, |1, 1, |1, 1, |0, 1, |1, 1, |0, 0, |1, 1, |1, 1, |0, 0, |1, 0, |1, 1, |1, 1, |0, 1, |1, 1, |0, 1, |1, 1, |1, 1, |1, 1, |0, 1, |1, 0|];
StudentsProgramm = [1, 1, 1, 1, 1, 1, 1, 1, 1, 1];
StudentsDegree = [1, 1, 1, 1, 1, 1, 1, 1, 1, 1];
StudentsSupervisorId = [17, 25, 6, 49, 57, 50, 9, 36, 27, 11];
StudentsCourseIds = [{1, 2, 3, 5}, {2, 3, 4, 6}, {1, 2, 3, 6}, {1, 3, 4, 6}, {1, 3, 5, 6}, {1, 3, 4, 5}, {1, 2, 4, 6}, {1, 2, 3, 5}, {1, 3, 4, 5}, {2, 3, 5, 6}];
StudentsAvailability = [|1, 1, |0, 0, |0, 1, |1, 1, |1, 1, |1, 1, |1, 0, |0, 1, |0, 1, |0, 0|];
TheoryticalMinCard = [2, 1, 2, 1, 1, 1, 2, 2, 1, 1];
CoursesInstructorIds = [{15, 20, 27, 31, 42}, {14, 57}, {10, 13, 14, 17, 18, 21, 23, 27, 31, 34, 37, 48}, {4, 6, 7, 8, 9, 10, 11, 12, 13, 17, 18, 21, 23, 24, 25, 26, 29, 31, 33, 34, 36, 37, 38, 40, 41, 42, 44, 46, 47, 48, 49, 50, 51, 52, 53, 58}, {4, 5, 8, 9, 10, 14, 15, 19, 20, 21, 30, 31, 33, 37, 40, 42, 43, 45, 47, 53, 55, 56, 57}, {2, 6, 14, 24, 50}];
RolesDemands = [23];
RolesContinuity = [];
ExamLen = [1, 1, 1, 1, 1, 1, 1, 1, 1, 1];
LunchTsMinLen = 1;
LunchStarts = [3..10, 19..24];
SupervisorAvailable = 5;
OptimalLunchLenght = [0, 1];
OptimalStartTs = [1, 0];
OptimalFinishTs = [1, 15];
MinimizeRooms = 400;
RolesSoftContinuity = [|1|3|];
SameDegreeInRoom = 0;
Mergeability = 2;
